% File represents an instance of a Composite Structure problem to be solved by a CP framework
% Created on 2025-03-26 10:41:49.869
T = 50;
n = 36;
m = 60;
edges = [(1, 2),
(7, 8),
(13, 14),
(20, 19),
(26, 25),
(32, 31),
(2, 3),
(8, 9),
(14, 15),
(20, 21),
(27, 26),
(33, 32),
(3, 4),
(9, 10),
(15, 16),
(21, 22),
(27, 28),
(34, 33),
(5, 4),
(11, 10),
(17, 16),
(22, 23),
(28, 29),
(34, 35),
(6, 5),
(12, 11),
(18, 17),
(24, 23),
(30, 29),
(36, 35),
(1, 7),
(7, 13),
(13, 19),
(19, 25),
(25, 31),
(2, 8),
(8, 14),
(20, 14),
(20, 26),
(26, 32),
(3, 9),
(9, 15),
(21, 15),
(27, 21),
(27, 33),
(4, 10),
(10, 16),
(22, 16),
(28, 22),
(34, 28),
(5, 11),
(11, 17),
(17, 23),
(29, 23),
(35, 29),
(6, 12),
(12, 18),
(18, 24),
(30, 24),
(36, 30)];
counts = [|6, 18, 6, 20,
|6, 18, 6, 14,
|6, 14, 6, 12,
|4, 12, 4, 12,
|4, 14, 4, 12,
|4, 16, 4, 14,
|6, 12, 6, 20,
|6, 12, 6, 14,
|6, 8, 6, 12,
|4, 6, 4, 12,
|4, 8, 4, 12,
|4, 14, 4, 12,
|6, 12, 6, 14,
|4, 10, 4, 14,
|4, 6, 4, 12,
|4, 6, 4, 6,
|4, 6, 4, 8,
|4, 12, 4, 8,
|4, 12, 4, 12,
|4, 12, 4, 14,
|4, 10, 4, 12,
|4, 6, 4, 10,
|4, 6, 4, 6,
|4, 6, 4, 8,
|4, 8, 4, 12,
|4, 8, 4, 14,
|4, 10, 4, 16,
|4, 10, 4, 12,
|4, 8, 4, 10,
|4, 10, 4, 10,
|4, 6, 4, 10,
|4, 6, 4, 14,
|4, 8, 4, 16,
|4, 10, 4, 18,
|4, 8, 4, 14,
|4, 10, 4, 16|];
